AMPL/invest.dat
param T := 24;

param expenses :=
4   6800
11  5800
16  5800
23  5800
;

param income :=
1 2000 2 2000 3 2000 4 2000 5 2000 6 2000 7 2000 8 2000 9 2000 10 2000
11 2000 12 2000 13 2000 14 2000 15 2000 16 2000 17 2000 18 2000 19 2000
20 2000 21 2000 22 2000 23 2000 24 2000
;

param StartCash := 4000;
param MinCash   := 3000;

set INVEST := Cert-1 Cert-3 Cert-6 Cert-12;

param:    life    nominal :=
Cert-1      1      1.20 
Cert-3      3      1.31
Cert-6      6      1.41
Cert-12    12      1.6
;
