AMPL/invest.out
Buy [*,*] (tr)
:     Cert-1     Cert-12   Cert-3     Cert-6     :=
1        0          0      3000         0
2      232.391      0      1767.61      0
3     1788.39       0         0       444.237
4        0          0         0         0
5        0          0         0      3773.4
6        0          0         0      2000
7        0          0      2000         0
8     2000          0         0         0
9        0       4449.37      0         0
10       0       4006.55      0         0
11       0          0         0         0
12       0       4014.1       0         0
13       0          0      2000         0
14    2000          0         0         0
15    1791.66       0         0      2210.34
16       0          0         0         0
17       0          0         0      2000
18       0          0         0      2000
19       0          0      2000         0
20       0          0      2000         0
21       0          0      8746.48      0
22    8077.2        0         0         0
23    8305.93       0         0         0
24   25181.8        0         0         0
;

:    Cash   Reimburse expenses income    :=
0    4000       .          .       .
1    3000       0           0    2000
2    3000       0           0    2000
3    3000     232.624       0    2000
4    3000    4800        6800    2000
5    3000    1773.4         0    2000
6    3000       0           0    2000
7    3000       0           0    2000
8    3000       0           0    2000
9    3000    2449.37        0    2000
10   3000    2006.55        0    2000
11   3000    3800        5800    2000
12   3000    2014.1         0    2000
13   3000       0           0    2000
14   3000       0           0    2000
15   3000    2002           0    2000
16   3000    3800        5800    2000
17   3000       0           0    2000
18   3000       0           0    2000
19   3000       0           0    2000
20   3000       0           0    2000
21   3000    6746.48        0    2000
22   3000    6077.2         0    2000
23   3000   12105.9      5800    2000
24   3000   23181.8         0    2000
;

